Maximize
  - 3.6220209145813 edge_0_1_0_0 - 2.2477597302688 edge_0_2_0_0
   - 0.55067976623448 edge_0_3_0_0 - 0.6205445777641599 edge_0_10_0_0
   + 0.75801034571339 edge_0_11_0_0 - 0.1351885035937276 edge_1_2_0_0
   - 0.2282672769065844 edge_1_3_0_0 - 0.9490171919611241 edge_1_5_0_0
   - 0.275744434654046 edge_1_6_0_0 + 0.039226603628799 edge_2_1_0_0
   + 0.5677735045975711 edge_2_3_0_0 - 0.3095383068598887 edge_2_4_0_0
   + 0.4165088439090327 edge_2_5_0_0 + 0.3471198677820909 edge_2_6_0_0
   + 0.189907777655404 edge_2_7_0_0 + 0.1915139655274814 edge_2_9_0_0
   - 0.9312565875386359 edge_2_10_0_0 - 0.796320704598904 edge_2_11_0_0
   + 1.482834320962571 edge_3_1_0_0 + 1.742390066831967 edge_3_2_0_0
   + 1.506803516458106 edge_3_4_0_0 + 2.240951778932098 edge_3_5_0_0
   + 1.568858583003201 edge_3_6_0_0 + 0.5995685312600951 edge_3_7_0_0
   + 0.7123618932298839 edge_3_9_0_0 + 1.408595902257884 edge_3_10_0_0
   + 1.049939099009256 edge_3_11_0_0 + 0.6430493863674034 edge_3_12_0_0
   + 0.3808386161919126 edge_3_13_0_0 + 1.027717081448442 edge_3_14_0_0
   - 0.2653351369602785 edge_4_3_0_0 + 0.2994918142880462 edge_4_5_0_0
   + 0.2001338473461881 edge_4_6_0_0 - 0.299538864782466 edge_4_7_0_0
   - 0.8877128504772358 edge_4_9_0_0 - 0.49957345194073 edge_4_10_0_0
   + 0.070886157788999 edge_5_1_0_0 + 0.0933564201718802 edge_5_2_0_0
   + 0.198197850718952 edge_5_3_0_0 + 3.2723021842313 edge_5_4_0_0
   + 2.303073990380827 edge_5_6_0_0 + 0.9291699951798745 edge_5_7_0_0
   + 1.674155356071873 edge_5_9_0_0 + 0.180873742078468 edge_5_10_0_0
   + 0.2214118060748974 edge_5_11_0_0 - 0.4512003441505833 edge_5_12_0_0
   - 0.0546470795482641 edge_5_13_0_0 + 0.8935637831903948 edge_5_14_0_0
   - 1.529132494324005 edge_6_1_0_0 - 1.59914405429909 edge_6_2_0_0
   - 0.6667733827544168 edge_6_4_0_0 - 0.4855939432707884 edge_6_5_0_0
   + 0.0748626888069142 edge_6_7_0_0 - 0.4145843771194279 edge_7_1_0_0
   - 0.3762672645635328 edge_7_2_0_0 - 0.3712482352842034 edge_7_3_0_0
   + 0.2894693224675948 edge_7_4_0_0 - 0.0761240529079439 edge_7_5_0_0
   + 0.14226286458971 edge_7_6_0_0 + 0.6011838542860666 edge_7_9_0_0
   + 0.0544018292174787 edge_7_10_0_0 - 0.00395381901822917 edge_7_11_0_0
   - 0.3621243304067525 edge_7_12_0_0 - 0.2937779227677632 edge_7_13_0_0
   + 0.0888739830982923 edge_7_14_0_0 - 1.0929816020451 edge_9_1_0_0
   - 0.9051948370649064 edge_9_2_0_0 - 0.8515993086901584 edge_9_3_0_0
   + 0.0230136671420209 edge_9_4_0_0 - 0.5691856214648207 edge_9_5_0_0
   - 0.3864831449250399 edge_9_6_0_0 + 0.2155540834572642 edge_9_7_0_0
   + 0.7626707137064745 edge_9_10_0_0 + 0.5839082350173938 edge_9_11_0_0
   - 0.1305861120084528 edge_9_12_0_0 + 0.013993982063586 edge_9_13_0_0
   + 0.7504650168895963 edge_9_14_0_0 + 0.8529333531478204 edge_10_1_0_0
   + 0.4809531129931394 edge_10_2_0_0 + 0.6086736800287442 edge_10_3_0_0
   + 0.2025872429611308 edge_10_4_0_0 + 0.9316991277078281 edge_10_5_0_0
   + 0.6467487859435257 edge_10_6_0_0 + 0.6286726861534873 edge_10_7_0_0
   + 1.925214294827935 edge_10_9_0_0 + 3.261541717049455 edge_10_11_0_0
   + 0.5037321502897836 edge_10_12_0_0 + 1.419450035835926 edge_10_13_0_0
   + 1.40333210185828 edge_10_14_0_0 + 0.5431021688797593 edge_11_1_0_0
   - 0.2006217516217569 edge_11_2_0_0 + 0.1299357618406555 edge_11_3_0_0
   - 0.8017702338048479 edge_11_4_0_0 + 0.1625748646693635 edge_11_5_0_0
   + 0.239737717378511 edge_11_6_0_0 + 0.1970002991091303 edge_11_7_0_0
   + 0.7171465510758444 edge_11_9_0_0 + 0.8983298544582022 edge_11_10_0_0
   + 1.202240958851122 edge_11_12_0_0 + 1.917161409893902 edge_11_13_0_0
   + 0.9625528386468377 edge_11_14_0_0 + 0.6578412578235379 edge_12_13_0_0
   + 0.122723019436274 edge_12_14_0_0 - 0.2269441576938643 edge_13_4_0_0
   - 0.1671588132237206 edge_13_9_0_0 + 0.1088090268527251 edge_13_11_0_0
   + 2.313318927256341 edge_13_12_0_0 + 1.042830162414168 edge_13_14_0_0
   - 1.015951882488159 edge_14_12_0_0 - 0.5428872609394755 edge_14_13_0_0
Subject To
 one_parent_1: edge_0_1_0_0 + edge_2_1_0_0 + edge_3_1_0_0 + edge_5_1_0_0
   + edge_6_1_0_0 + edge_7_1_0_0 + edge_9_1_0_0 + edge_10_1_0_0
   + edge_11_1_0_0 = 1
 consume_one_flow_unit_1: flow_0_1_0_0 - flow_1_2_0_0 - flow_1_3_0_0
   - flow_1_5_0_0 - flow_1_6_0_0 + flow_2_1_0_0 + flow_3_1_0_0
   + flow_5_1_0_0 + flow_6_1_0_0 + flow_7_1_0_0 + flow_9_1_0_0
   + flow_10_1_0_0 + flow_11_1_0_0 = 1
 one_parent_2: edge_0_2_0_0 + edge_1_2_0_0 + edge_3_2_0_0 + edge_5_2_0_0
   + edge_6_2_0_0 + edge_7_2_0_0 + edge_9_2_0_0 + edge_10_2_0_0
   + edge_11_2_0_0 = 1
 consume_one_flow_unit_2: flow_0_2_0_0 + flow_1_2_0_0 - flow_2_1_0_0
   - flow_2_3_0_0 - flow_2_4_0_0 - flow_2_5_0_0 - flow_2_6_0_0
   - flow_2_7_0_0 - flow_2_9_0_0 - flow_2_10_0_0 - flow_2_11_0_0
   + flow_3_2_0_0 + flow_5_2_0_0 + flow_6_2_0_0 + flow_7_2_0_0
   + flow_9_2_0_0 + flow_10_2_0_0 + flow_11_2_0_0 = 1
 one_parent_3: edge_0_3_0_0 + edge_1_3_0_0 + edge_2_3_0_0 + edge_4_3_0_0
   + edge_5_3_0_0 + edge_7_3_0_0 + edge_9_3_0_0 + edge_10_3_0_0
   + edge_11_3_0_0 = 1
 consume_one_flow_unit_3: flow_0_3_0_0 + flow_1_3_0_0 + flow_2_3_0_0
   - flow_3_1_0_0 - flow_3_2_0_0 - flow_3_4_0_0 - flow_3_5_0_0
   - flow_3_6_0_0 - flow_3_7_0_0 - flow_3_9_0_0 - flow_3_10_0_0
   - flow_3_11_0_0 - flow_3_12_0_0 - flow_3_13_0_0 - flow_3_14_0_0
   + flow_4_3_0_0 + flow_5_3_0_0 + flow_7_3_0_0 + flow_9_3_0_0
   + flow_10_3_0_0 + flow_11_3_0_0 = 1
 one_parent_4: edge_2_4_0_0 + edge_3_4_0_0 + edge_5_4_0_0 + edge_6_4_0_0
   + edge_7_4_0_0 + edge_9_4_0_0 + edge_10_4_0_0 + edge_11_4_0_0
   + edge_13_4_0_0 = 1
 consume_one_flow_unit_4: flow_2_4_0_0 + flow_3_4_0_0 - flow_4_3_0_0
   - flow_4_5_0_0 - flow_4_6_0_0 - flow_4_7_0_0 - flow_4_9_0_0
   - flow_4_10_0_0 + flow_5_4_0_0 + flow_6_4_0_0 + flow_7_4_0_0
   + flow_9_4_0_0 + flow_10_4_0_0 + flow_11_4_0_0 + flow_13_4_0_0 = 1
 one_parent_5: edge_1_5_0_0 + edge_2_5_0_0 + edge_3_5_0_0 + edge_4_5_0_0
   + edge_6_5_0_0 + edge_7_5_0_0 + edge_9_5_0_0 + edge_10_5_0_0
   + edge_11_5_0_0 = 1
 consume_one_flow_unit_5: flow_1_5_0_0 + flow_2_5_0_0 + flow_3_5_0_0
   + flow_4_5_0_0 - flow_5_1_0_0 - flow_5_2_0_0 - flow_5_3_0_0
   - flow_5_4_0_0 - flow_5_6_0_0 - flow_5_7_0_0 - flow_5_9_0_0
   - flow_5_10_0_0 - flow_5_11_0_0 - flow_5_12_0_0 - flow_5_13_0_0
   - flow_5_14_0_0 + flow_6_5_0_0 + flow_7_5_0_0 + flow_9_5_0_0
   + flow_10_5_0_0 + flow_11_5_0_0 = 1
 one_parent_6: edge_1_6_0_0 + edge_2_6_0_0 + edge_3_6_0_0 + edge_4_6_0_0
   + edge_5_6_0_0 + edge_7_6_0_0 + edge_9_6_0_0 + edge_10_6_0_0
   + edge_11_6_0_0 = 1
 consume_one_flow_unit_6: flow_1_6_0_0 + flow_2_6_0_0 + flow_3_6_0_0
   + flow_4_6_0_0 + flow_5_6_0_0 - flow_6_1_0_0 - flow_6_2_0_0
   - flow_6_4_0_0 - flow_6_5_0_0 - flow_6_7_0_0 + flow_7_6_0_0
   + flow_9_6_0_0 + flow_10_6_0_0 + flow_11_6_0_0 = 1
 one_parent_7: edge_2_7_0_0 + edge_3_7_0_0 + edge_4_7_0_0 + edge_5_7_0_0
   + edge_6_7_0_0 + edge_9_7_0_0 + edge_10_7_0_0 + edge_11_7_0_0 = 1
 consume_one_flow_unit_7: flow_2_7_0_0 + flow_3_7_0_0 + flow_4_7_0_0
   + flow_5_7_0_0 + flow_6_7_0_0 - flow_7_1_0_0 - flow_7_2_0_0
   - flow_7_3_0_0 - flow_7_4_0_0 - flow_7_5_0_0 - flow_7_6_0_0
   - flow_7_9_0_0 - flow_7_10_0_0 - flow_7_11_0_0 - flow_7_12_0_0
   - flow_7_13_0_0 - flow_7_14_0_0 + flow_9_7_0_0 + flow_10_7_0_0
   + flow_11_7_0_0 = 1
 one_parent_8: = 1
 consume_one_flow_unit_8: = 1
 one_parent_9: edge_2_9_0_0 + edge_3_9_0_0 + edge_4_9_0_0 + edge_5_9_0_0
   + edge_7_9_0_0 + edge_10_9_0_0 + edge_11_9_0_0 + edge_13_9_0_0 = 1
 consume_one_flow_unit_9: flow_2_9_0_0 + flow_3_9_0_0 + flow_4_9_0_0
   + flow_5_9_0_0 + flow_7_9_0_0 - flow_9_1_0_0 - flow_9_2_0_0
   - flow_9_3_0_0 - flow_9_4_0_0 - flow_9_5_0_0 - flow_9_6_0_0
   - flow_9_7_0_0 - flow_9_10_0_0 - flow_9_11_0_0 - flow_9_12_0_0
   - flow_9_13_0_0 - flow_9_14_0_0 + flow_10_9_0_0 + flow_11_9_0_0
   + flow_13_9_0_0 = 1
 one_parent_10: edge_0_10_0_0 + edge_2_10_0_0 + edge_3_10_0_0
   + edge_4_10_0_0 + edge_5_10_0_0 + edge_7_10_0_0 + edge_9_10_0_0
   + edge_11_10_0_0 = 1
 consume_one_flow_unit_10: flow_0_10_0_0 + flow_2_10_0_0 + flow_3_10_0_0
   + flow_4_10_0_0 + flow_5_10_0_0 + flow_7_10_0_0 + flow_9_10_0_0
   - flow_10_1_0_0 - flow_10_2_0_0 - flow_10_3_0_0 - flow_10_4_0_0
   - flow_10_5_0_0 - flow_10_6_0_0 - flow_10_7_0_0 - flow_10_9_0_0
   - flow_10_11_0_0 - flow_10_12_0_0 - flow_10_13_0_0 - flow_10_14_0_0
   + flow_11_10_0_0 = 1
 one_parent_11: edge_0_11_0_0 + edge_2_11_0_0 + edge_3_11_0_0
   + edge_5_11_0_0 + edge_7_11_0_0 + edge_9_11_0_0 + edge_10_11_0_0
   + edge_13_11_0_0 = 1
 consume_one_flow_unit_11: flow_0_11_0_0 + flow_2_11_0_0 + flow_3_11_0_0
   + flow_5_11_0_0 + flow_7_11_0_0 + flow_9_11_0_0 + flow_10_11_0_0
   - flow_11_1_0_0 - flow_11_2_0_0 - flow_11_3_0_0 - flow_11_4_0_0
   - flow_11_5_0_0 - flow_11_6_0_0 - flow_11_7_0_0 - flow_11_9_0_0
   - flow_11_10_0_0 - flow_11_12_0_0 - flow_11_13_0_0 - flow_11_14_0_0
   + flow_13_11_0_0 = 1
 one_parent_12: edge_3_12_0_0 + edge_5_12_0_0 + edge_7_12_0_0
   + edge_9_12_0_0 + edge_10_12_0_0 + edge_11_12_0_0 + edge_13_12_0_0
   + edge_14_12_0_0 = 1
 consume_one_flow_unit_12: flow_3_12_0_0 + flow_5_12_0_0 + flow_7_12_0_0
   + flow_9_12_0_0 + flow_10_12_0_0 + flow_11_12_0_0 - flow_12_13_0_0
   - flow_12_14_0_0 + flow_13_12_0_0 + flow_14_12_0_0 = 1
 one_parent_13: edge_3_13_0_0 + edge_5_13_0_0 + edge_7_13_0_0
   + edge_9_13_0_0 + edge_10_13_0_0 + edge_11_13_0_0 + edge_12_13_0_0
   + edge_14_13_0_0 = 1
 consume_one_flow_unit_13: flow_3_13_0_0 + flow_5_13_0_0 + flow_7_13_0_0
   + flow_9_13_0_0 + flow_10_13_0_0 + flow_11_13_0_0 + flow_12_13_0_0
   - flow_13_4_0_0 - flow_13_9_0_0 - flow_13_11_0_0 - flow_13_12_0_0
   - flow_13_14_0_0 + flow_14_13_0_0 = 1
 one_parent_14: edge_3_14_0_0 + edge_5_14_0_0 + edge_7_14_0_0
   + edge_9_14_0_0 + edge_10_14_0_0 + edge_11_14_0_0 + edge_12_14_0_0
   + edge_13_14_0_0 = 1
 consume_one_flow_unit_14: flow_3_14_0_0 + flow_5_14_0_0 + flow_7_14_0_0
   + flow_9_14_0_0 + flow_10_14_0_0 + flow_11_14_0_0 + flow_12_14_0_0
   + flow_13_14_0_0 - flow_14_12_0_0 - flow_14_13_0_0 = 1
 root_flow: flow_0_1_0_0 + flow_0_2_0_0 + flow_0_3_0_0 + flow_0_10_0_0
   + flow_0_11_0_0 = 14
 inactive_no_flow_0_1_0_0: flow_0_1_0_0 - 1000 edge_0_1_0_0 <= 0
 inactive_no_flow_0_2_0_0: flow_0_2_0_0 - 1000 edge_0_2_0_0 <= 0
 inactive_no_flow_0_3_0_0: flow_0_3_0_0 - 1000 edge_0_3_0_0 <= 0
 inactive_no_flow_0_10_0_0: flow_0_10_0_0 - 1000 edge_0_10_0_0 <= 0
 inactive_no_flow_0_11_0_0: flow_0_11_0_0 - 1000 edge_0_11_0_0 <= 0
 inactive_no_flow_1_2_0_0: flow_1_2_0_0 - 1000 edge_1_2_0_0 <= 0
 inactive_no_flow_1_3_0_0: flow_1_3_0_0 - 1000 edge_1_3_0_0 <= 0
 inactive_no_flow_1_5_0_0: flow_1_5_0_0 - 1000 edge_1_5_0_0 <= 0
 inactive_no_flow_1_6_0_0: flow_1_6_0_0 - 1000 edge_1_6_0_0 <= 0
 inactive_no_flow_2_1_0_0: flow_2_1_0_0 - 1000 edge_2_1_0_0 <= 0
 inactive_no_flow_2_3_0_0: flow_2_3_0_0 - 1000 edge_2_3_0_0 <= 0
 inactive_no_flow_2_4_0_0: flow_2_4_0_0 - 1000 edge_2_4_0_0 <= 0
 inactive_no_flow_2_5_0_0: flow_2_5_0_0 - 1000 edge_2_5_0_0 <= 0
 inactive_no_flow_2_6_0_0: flow_2_6_0_0 - 1000 edge_2_6_0_0 <= 0
 inactive_no_flow_2_7_0_0: flow_2_7_0_0 - 1000 edge_2_7_0_0 <= 0
 inactive_no_flow_2_9_0_0: flow_2_9_0_0 - 1000 edge_2_9_0_0 <= 0
 inactive_no_flow_2_10_0_0: flow_2_10_0_0 - 1000 edge_2_10_0_0 <= 0
 inactive_no_flow_2_11_0_0: flow_2_11_0_0 - 1000 edge_2_11_0_0 <= 0
 inactive_no_flow_3_1_0_0: flow_3_1_0_0 - 1000 edge_3_1_0_0 <= 0
 inactive_no_flow_3_2_0_0: flow_3_2_0_0 - 1000 edge_3_2_0_0 <= 0
 inactive_no_flow_3_4_0_0: flow_3_4_0_0 - 1000 edge_3_4_0_0 <= 0
 inactive_no_flow_3_5_0_0: flow_3_5_0_0 - 1000 edge_3_5_0_0 <= 0
 inactive_no_flow_3_6_0_0: flow_3_6_0_0 - 1000 edge_3_6_0_0 <= 0
 inactive_no_flow_3_7_0_0: flow_3_7_0_0 - 1000 edge_3_7_0_0 <= 0
 inactive_no_flow_3_9_0_0: flow_3_9_0_0 - 1000 edge_3_9_0_0 <= 0
 inactive_no_flow_3_10_0_0: flow_3_10_0_0 - 1000 edge_3_10_0_0 <= 0
 inactive_no_flow_3_11_0_0: flow_3_11_0_0 - 1000 edge_3_11_0_0 <= 0
 inactive_no_flow_3_12_0_0: flow_3_12_0_0 - 1000 edge_3_12_0_0 <= 0
 inactive_no_flow_3_13_0_0: flow_3_13_0_0 - 1000 edge_3_13_0_0 <= 0
 inactive_no_flow_3_14_0_0: flow_3_14_0_0 - 1000 edge_3_14_0_0 <= 0
 inactive_no_flow_4_3_0_0: flow_4_3_0_0 - 1000 edge_4_3_0_0 <= 0
 inactive_no_flow_4_5_0_0: flow_4_5_0_0 - 1000 edge_4_5_0_0 <= 0
 inactive_no_flow_4_6_0_0: flow_4_6_0_0 - 1000 edge_4_6_0_0 <= 0
 inactive_no_flow_4_7_0_0: flow_4_7_0_0 - 1000 edge_4_7_0_0 <= 0
 inactive_no_flow_4_9_0_0: flow_4_9_0_0 - 1000 edge_4_9_0_0 <= 0
 inactive_no_flow_4_10_0_0: flow_4_10_0_0 - 1000 edge_4_10_0_0 <= 0
 inactive_no_flow_5_1_0_0: flow_5_1_0_0 - 1000 edge_5_1_0_0 <= 0
 inactive_no_flow_5_2_0_0: flow_5_2_0_0 - 1000 edge_5_2_0_0 <= 0
 inactive_no_flow_5_3_0_0: flow_5_3_0_0 - 1000 edge_5_3_0_0 <= 0
 inactive_no_flow_5_4_0_0: flow_5_4_0_0 - 1000 edge_5_4_0_0 <= 0
 inactive_no_flow_5_6_0_0: flow_5_6_0_0 - 1000 edge_5_6_0_0 <= 0
 inactive_no_flow_5_7_0_0: flow_5_7_0_0 - 1000 edge_5_7_0_0 <= 0
 inactive_no_flow_5_9_0_0: flow_5_9_0_0 - 1000 edge_5_9_0_0 <= 0
 inactive_no_flow_5_10_0_0: flow_5_10_0_0 - 1000 edge_5_10_0_0 <= 0
 inactive_no_flow_5_11_0_0: flow_5_11_0_0 - 1000 edge_5_11_0_0 <= 0
 inactive_no_flow_5_12_0_0: flow_5_12_0_0 - 1000 edge_5_12_0_0 <= 0
 inactive_no_flow_5_13_0_0: flow_5_13_0_0 - 1000 edge_5_13_0_0 <= 0
 inactive_no_flow_5_14_0_0: flow_5_14_0_0 - 1000 edge_5_14_0_0 <= 0
 inactive_no_flow_6_1_0_0: flow_6_1_0_0 - 1000 edge_6_1_0_0 <= 0
 inactive_no_flow_6_2_0_0: flow_6_2_0_0 - 1000 edge_6_2_0_0 <= 0
 inactive_no_flow_6_4_0_0: flow_6_4_0_0 - 1000 edge_6_4_0_0 <= 0
 inactive_no_flow_6_5_0_0: flow_6_5_0_0 - 1000 edge_6_5_0_0 <= 0
 inactive_no_flow_6_7_0_0: flow_6_7_0_0 - 1000 edge_6_7_0_0 <= 0
 inactive_no_flow_7_1_0_0: flow_7_1_0_0 - 1000 edge_7_1_0_0 <= 0
 inactive_no_flow_7_2_0_0: flow_7_2_0_0 - 1000 edge_7_2_0_0 <= 0
 inactive_no_flow_7_3_0_0: flow_7_3_0_0 - 1000 edge_7_3_0_0 <= 0
 inactive_no_flow_7_4_0_0: flow_7_4_0_0 - 1000 edge_7_4_0_0 <= 0
 inactive_no_flow_7_5_0_0: flow_7_5_0_0 - 1000 edge_7_5_0_0 <= 0
 inactive_no_flow_7_6_0_0: flow_7_6_0_0 - 1000 edge_7_6_0_0 <= 0
 inactive_no_flow_7_9_0_0: flow_7_9_0_0 - 1000 edge_7_9_0_0 <= 0
 inactive_no_flow_7_10_0_0: flow_7_10_0_0 - 1000 edge_7_10_0_0 <= 0
 inactive_no_flow_7_11_0_0: flow_7_11_0_0 - 1000 edge_7_11_0_0 <= 0
 inactive_no_flow_7_12_0_0: flow_7_12_0_0 - 1000 edge_7_12_0_0 <= 0
 inactive_no_flow_7_13_0_0: flow_7_13_0_0 - 1000 edge_7_13_0_0 <= 0
 inactive_no_flow_7_14_0_0: flow_7_14_0_0 - 1000 edge_7_14_0_0 <= 0
 inactive_no_flow_9_1_0_0: flow_9_1_0_0 - 1000 edge_9_1_0_0 <= 0
 inactive_no_flow_9_2_0_0: flow_9_2_0_0 - 1000 edge_9_2_0_0 <= 0
 inactive_no_flow_9_3_0_0: flow_9_3_0_0 - 1000 edge_9_3_0_0 <= 0
 inactive_no_flow_9_4_0_0: flow_9_4_0_0 - 1000 edge_9_4_0_0 <= 0
 inactive_no_flow_9_5_0_0: flow_9_5_0_0 - 1000 edge_9_5_0_0 <= 0
 inactive_no_flow_9_6_0_0: flow_9_6_0_0 - 1000 edge_9_6_0_0 <= 0
 inactive_no_flow_9_7_0_0: flow_9_7_0_0 - 1000 edge_9_7_0_0 <= 0
 inactive_no_flow_9_10_0_0: flow_9_10_0_0 - 1000 edge_9_10_0_0 <= 0
 inactive_no_flow_9_11_0_0: flow_9_11_0_0 - 1000 edge_9_11_0_0 <= 0
 inactive_no_flow_9_12_0_0: flow_9_12_0_0 - 1000 edge_9_12_0_0 <= 0
 inactive_no_flow_9_13_0_0: flow_9_13_0_0 - 1000 edge_9_13_0_0 <= 0
 inactive_no_flow_9_14_0_0: flow_9_14_0_0 - 1000 edge_9_14_0_0 <= 0
 inactive_no_flow_10_1_0_0: flow_10_1_0_0 - 1000 edge_10_1_0_0 <= 0
 inactive_no_flow_10_2_0_0: flow_10_2_0_0 - 1000 edge_10_2_0_0 <= 0
 inactive_no_flow_10_3_0_0: flow_10_3_0_0 - 1000 edge_10_3_0_0 <= 0
 inactive_no_flow_10_4_0_0: flow_10_4_0_0 - 1000 edge_10_4_0_0 <= 0
 inactive_no_flow_10_5_0_0: flow_10_5_0_0 - 1000 edge_10_5_0_0 <= 0
 inactive_no_flow_10_6_0_0: flow_10_6_0_0 - 1000 edge_10_6_0_0 <= 0
 inactive_no_flow_10_7_0_0: flow_10_7_0_0 - 1000 edge_10_7_0_0 <= 0
 inactive_no_flow_10_9_0_0: flow_10_9_0_0 - 1000 edge_10_9_0_0 <= 0
 inactive_no_flow_10_11_0_0: flow_10_11_0_0 - 1000 edge_10_11_0_0 <= 0
 inactive_no_flow_10_12_0_0: flow_10_12_0_0 - 1000 edge_10_12_0_0 <= 0
 inactive_no_flow_10_13_0_0: flow_10_13_0_0 - 1000 edge_10_13_0_0 <= 0
 inactive_no_flow_10_14_0_0: flow_10_14_0_0 - 1000 edge_10_14_0_0 <= 0
 inactive_no_flow_11_1_0_0: flow_11_1_0_0 - 1000 edge_11_1_0_0 <= 0
 inactive_no_flow_11_2_0_0: flow_11_2_0_0 - 1000 edge_11_2_0_0 <= 0
 inactive_no_flow_11_3_0_0: flow_11_3_0_0 - 1000 edge_11_3_0_0 <= 0
 inactive_no_flow_11_4_0_0: flow_11_4_0_0 - 1000 edge_11_4_0_0 <= 0
 inactive_no_flow_11_5_0_0: flow_11_5_0_0 - 1000 edge_11_5_0_0 <= 0
 inactive_no_flow_11_6_0_0: flow_11_6_0_0 - 1000 edge_11_6_0_0 <= 0
 inactive_no_flow_11_7_0_0: flow_11_7_0_0 - 1000 edge_11_7_0_0 <= 0
 inactive_no_flow_11_9_0_0: flow_11_9_0_0 - 1000 edge_11_9_0_0 <= 0
 inactive_no_flow_11_10_0_0: flow_11_10_0_0 - 1000 edge_11_10_0_0 <= 0
 inactive_no_flow_11_12_0_0: flow_11_12_0_0 - 1000 edge_11_12_0_0 <= 0
 inactive_no_flow_11_13_0_0: flow_11_13_0_0 - 1000 edge_11_13_0_0 <= 0
 inactive_no_flow_11_14_0_0: flow_11_14_0_0 - 1000 edge_11_14_0_0 <= 0
 inactive_no_flow_12_13_0_0: flow_12_13_0_0 - 1000 edge_12_13_0_0 <= 0
 inactive_no_flow_12_14_0_0: flow_12_14_0_0 - 1000 edge_12_14_0_0 <= 0
 inactive_no_flow_13_4_0_0: flow_13_4_0_0 - 1000 edge_13_4_0_0 <= 0
 inactive_no_flow_13_9_0_0: flow_13_9_0_0 - 1000 edge_13_9_0_0 <= 0
 inactive_no_flow_13_11_0_0: flow_13_11_0_0 - 1000 edge_13_11_0_0 <= 0
 inactive_no_flow_13_12_0_0: flow_13_12_0_0 - 1000 edge_13_12_0_0 <= 0
 inactive_no_flow_13_14_0_0: flow_13_14_0_0 - 1000 edge_13_14_0_0 <= 0
 inactive_no_flow_14_12_0_0: flow_14_12_0_0 - 1000 edge_14_12_0_0 <= 0
 inactive_no_flow_14_13_0_0: flow_14_13_0_0 - 1000 edge_14_13_0_0 <= 0
Bounds
Binaries
 edge_0_1_0_0 edge_0_2_0_0 edge_0_3_0_0 edge_0_10_0_0 edge_0_11_0_0
 edge_1_2_0_0 edge_1_3_0_0 edge_1_5_0_0 edge_1_6_0_0 edge_2_1_0_0
 edge_2_3_0_0 edge_2_4_0_0 edge_2_5_0_0 edge_2_6_0_0 edge_2_7_0_0
 edge_2_9_0_0 edge_2_10_0_0 edge_2_11_0_0 edge_3_1_0_0 edge_3_2_0_0
 edge_3_4_0_0 edge_3_5_0_0 edge_3_6_0_0 edge_3_7_0_0 edge_3_9_0_0
 edge_3_10_0_0 edge_3_11_0_0 edge_3_12_0_0 edge_3_13_0_0 edge_3_14_0_0
 edge_4_3_0_0 edge_4_5_0_0 edge_4_6_0_0 edge_4_7_0_0 edge_4_9_0_0
 edge_4_10_0_0 edge_5_1_0_0 edge_5_2_0_0 edge_5_3_0_0 edge_5_4_0_0
 edge_5_6_0_0 edge_5_7_0_0 edge_5_9_0_0 edge_5_10_0_0 edge_5_11_0_0
 edge_5_12_0_0 edge_5_13_0_0 edge_5_14_0_0 edge_6_1_0_0 edge_6_2_0_0
 edge_6_4_0_0 edge_6_5_0_0 edge_6_7_0_0 edge_7_1_0_0 edge_7_2_0_0
 edge_7_3_0_0 edge_7_4_0_0 edge_7_5_0_0 edge_7_6_0_0 edge_7_9_0_0
 edge_7_10_0_0 edge_7_11_0_0 edge_7_12_0_0 edge_7_13_0_0 edge_7_14_0_0
 edge_9_1_0_0 edge_9_2_0_0 edge_9_3_0_0 edge_9_4_0_0 edge_9_5_0_0
 edge_9_6_0_0 edge_9_7_0_0 edge_9_10_0_0 edge_9_11_0_0 edge_9_12_0_0
 edge_9_13_0_0 edge_9_14_0_0 edge_10_1_0_0 edge_10_2_0_0 edge_10_3_0_0
 edge_10_4_0_0 edge_10_5_0_0 edge_10_6_0_0 edge_10_7_0_0 edge_10_9_0_0
 edge_10_11_0_0 edge_10_12_0_0 edge_10_13_0_0 edge_10_14_0_0 edge_11_1_0_0
 edge_11_2_0_0 edge_11_3_0_0 edge_11_4_0_0 edge_11_5_0_0 edge_11_6_0_0
 edge_11_7_0_0 edge_11_9_0_0 edge_11_10_0_0 edge_11_12_0_0 edge_11_13_0_0
 edge_11_14_0_0 edge_12_13_0_0 edge_12_14_0_0 edge_13_4_0_0 edge_13_9_0_0
 edge_13_11_0_0 edge_13_12_0_0 edge_13_14_0_0 edge_14_12_0_0 edge_14_13_0_0
End
